<instance format="XCSP3" type="COP">
  <variables>
    <array id="s" note="Start time of operation j for job i" size="[15][15]"> 0..1034 </array>
    <array id="e" note="End time of last operation of job i" size="[15]"> 0..1034 </array>
    <array id="d" note="Duration of operation j for job i" size="[15][15]">
      <domain for="d[0][]"> 7 12 13 45 47..49 57 67 72 78 81 83 91 </domain>
      <domain for="d[1][]"> 31 39 40 44 51 55 56 60 63 64 68 74 87 99 </domain>
      <domain for="d[2][]"> 7 11 16 21 26 27 40 41 43 48 55 86 98 </domain>
      <domain for="d[3][]"> 1 3 13 15 17 23 40 43 45 58 59 64 78 89 98 </domain>
      <domain for="d[4][]"> 5 13 18 21 31 35 41 49 55 56 59 63 73 85 93 </domain>
      <domain for="d[5][]"> 7 8 11 14 17 26 36 40 54 60 71 75 79 89 97 </domain>
      <domain for="d[6][]"> 1 19 26 28 34 39 40 58 65 68 70 76 89 95 </domain>
      <domain for="d[7][]"> 5 11 26 30 40..42 65 68 70 73 76 85 89 97 </domain>
      <domain for="d[8][]"> 6 9 20 23 31 42 45 66 70 71 81 95 97 99 </domain>
      <domain for="d[9][]"> 13 26 30 35 38 42 44 50 61 66 73 84 85 89 90 </domain>
      <domain for="d[10][]"> 8 12 13 23 26 28 32 46 55 57 69 83 87 </domain>
      <domain for="d[11][]"> 2 7 18 32 34 37 38 46 53 58 70 93 99 </domain>
      <domain for="d[12][]"> 4 8 13 16 25 28 33 41 42 44 49 55 63 68 89 </domain>
      <domain for="d[13][]"> 15 18 22 23 44 55 68 74 78 81 87 92 93 </domain>
      <domain for="d[14][]"> 6 13 24 33 36 39 55 57 58 60 61 79 80 87 99 </domain>
    </array>
    <array id="w" note="Which machine for operation j of job i" size="[15][15]"> 0..14 </array>
    <array id="sd" note="Start (dual) time of job i, machine k" size="[15][15]"> 0..1034 </array>
  </variables>
  <constraints>
    <group>
      <intension> eq(%0,add(%1,%2)) </intension>
      <args> e[0] s[0][14] d[0][14] </args>
      <args> e[1] s[1][14] d[1][14] </args>
      <args> e[2] s[2][14] d[2][14] </args>
      <args> e[3] s[3][14] d[3][14] </args>
      <args> e[4] s[4][14] d[4][14] </args>
      <args> e[5] s[5][14] d[5][14] </args>
      <args> e[6] s[6][14] d[6][14] </args>
      <args> e[7] s[7][14] d[7][14] </args>
      <args> e[8] s[8][14] d[8][14] </args>
      <args> e[9] s[9][14] d[9][14] </args>
      <args> e[10] s[10][14] d[10][14] </args>
      <args> e[11] s[11][14] d[11][14] </args>
      <args> e[12] s[12][14] d[12][14] </args>
      <args> e[13] s[13][14] d[13][14] </args>
      <args> e[14] s[14][14] d[14][14] </args>
    </group>
    <group>
      <allDifferent> %... </allDifferent>
      <args> w[0][] </args>
      <args> w[1][] </args>
      <args> w[2][] </args>
      <args> w[3][] </args>
      <args> w[4][] </args>
      <args> w[5][] </args>
      <args> w[6][] </args>
      <args> w[7][] </args>
      <args> w[8][] </args>
      <args> w[9][] </args>
      <args> w[10][] </args>
      <args> w[11][] </args>
      <args> w[12][] </args>
      <args> w[13][] </args>
      <args> w[14][] </args>
    </group>
    <block>
      <group>
        <extension>
          <list> %0 %1 </list>
          <supports> (0,48)(1,47)(2,67)(3,13)(4,12)(5,91)(6,45)(7,7)(8,72)(9,83)(10,81)(11,81)(12,49)(13,57)(14,78) </supports>
        </extension>
        <args> w[0][0] d[0][0] </args>
        <args> w[0][1] d[0][1] </args>
        <args> w[0][2] d[0][2] </args>
        <args> w[0][3] d[0][3] </args>
        <args> w[0][4] d[0][4] </args>
        <args> w[0][5] d[0][5] </args>
        <args> w[0][6] d[0][6] </args>
        <args> w[0][7] d[0][7] </args>
        <args> w[0][8] d[0][8] </args>
        <args> w[0][9] d[0][9] </args>
        <args> w[0][10] d[0][10] </args>
        <args> w[0][11] d[0][11] </args>
        <args> w[0][12] d[0][12] </args>
        <args> w[0][13] d[0][13] </args>
        <args> w[0][14] d[0][14] </args>
      </group>
      <group>
        <extension>
          <list> %0 %1 </list>
          <supports> (0,39)(1,31)(2,56)(3,31)(4,51)(5,74)(6,55)(7,87)(8,44)(9,99)(10,63)(11,40)(12,68)(13,64)(14,60) </supports>
        </extension>
        <args> w[1][0] d[1][0] </args>
        <args> w[1][1] d[1][1] </args>
        <args> w[1][2] d[1][2] </args>
        <args> w[1][3] d[1][3] </args>
        <args> w[1][4] d[1][4] </args>
        <args> w[1][5] d[1][5] </args>
        <args> w[1][6] d[1][6] </args>
        <args> w[1][7] d[1][7] </args>
        <args> w[1][8] d[1][8] </args>
        <args> w[1][9] d[1][9] </args>
        <args> w[1][10] d[1][10] </args>
        <args> w[1][11] d[1][11] </args>
        <args> w[1][12] d[1][12] </args>
        <args> w[1][13] d[1][13] </args>
        <args> w[1][14] d[1][14] </args>
      </group>
      <group>
        <extension>
          <list> %0 %1 </list>
          <supports> (0,26)(1,48)(2,7)(3,40)(4,98)(5,21)(6,43)(7,16)(8,55)(9,27)(10,16)(11,41)(12,98)(13,86)(14,11) </supports>
        </extension>
        <args> w[2][0] d[2][0] </args>
        <args> w[2][1] d[2][1] </args>
        <args> w[2][2] d[2][2] </args>
        <args> w[2][3] d[2][3] </args>
        <args> w[2][4] d[2][4] </args>
        <args> w[2][5] d[2][5] </args>
        <args> w[2][6] d[2][6] </args>
        <args> w[2][7] d[2][7] </args>
        <args> w[2][8] d[2][8] </args>
        <args> w[2][9] d[2][9] </args>
        <args> w[2][10] d[2][10] </args>
        <args> w[2][11] d[2][11] </args>
        <args> w[2][12] d[2][12] </args>
        <args> w[2][13] d[2][13] </args>
        <args> w[2][14] d[2][14] </args>
      </group>
      <group>
        <extension>
          <list> %0 %1 </list>
          <supports> (0,23)(1,43)(2,98)(3,64)(4,1)(5,78)(6,45)(7,3)(8,13)(9,15)(10,89)(11,59)(12,40)(13,17)(14,58) </supports>
        </extension>
        <args> w[3][0] d[3][0] </args>
        <args> w[3][1] d[3][1] </args>
        <args> w[3][2] d[3][2] </args>
        <args> w[3][3] d[3][3] </args>
        <args> w[3][4] d[3][4] </args>
        <args> w[3][5] d[3][5] </args>
        <args> w[3][6] d[3][6] </args>
        <args> w[3][7] d[3][7] </args>
        <args> w[3][8] d[3][8] </args>
        <args> w[3][9] d[3][9] </args>
        <args> w[3][10] d[3][10] </args>
        <args> w[3][11] d[3][11] </args>
        <args> w[3][12] d[3][12] </args>
        <args> w[3][13] d[3][13] </args>
        <args> w[3][14] d[3][14] </args>
      </group>
      <group>
        <extension>
          <list> %0 %1 </list>
          <supports> (0,21)(1,93)(2,5)(3,31)(4,59)(5,85)(6,35)(7,63)(8,73)(9,18)(10,41)(11,55)(12,13)(13,49)(14,56) </supports>
        </extension>
        <args> w[4][0] d[4][0] </args>
        <args> w[4][1] d[4][1] </args>
        <args> w[4][2] d[4][2] </args>
        <args> w[4][3] d[4][3] </args>
        <args> w[4][4] d[4][4] </args>
        <args> w[4][5] d[4][5] </args>
        <args> w[4][6] d[4][6] </args>
        <args> w[4][7] d[4][7] </args>
        <args> w[4][8] d[4][8] </args>
        <args> w[4][9] d[4][9] </args>
        <args> w[4][10] d[4][10] </args>
        <args> w[4][11] d[4][11] </args>
        <args> w[4][12] d[4][12] </args>
        <args> w[4][13] d[4][13] </args>
        <args> w[4][14] d[4][14] </args>
      </group>
      <group>
        <extension>
          <list> %0 %1 </list>
          <supports> (0,97)(1,40)(2,54)(3,89)(4,60)(5,14)(6,26)(7,7)(8,11)(9,17)(10,75)(11,71)(12,79)(13,36)(14,8) </supports>
        </extension>
        <args> w[5][0] d[5][0] </args>
        <args> w[5][1] d[5][1] </args>
        <args> w[5][2] d[5][2] </args>
        <args> w[5][3] d[5][3] </args>
        <args> w[5][4] d[5][4] </args>
        <args> w[5][5] d[5][5] </args>
        <args> w[5][6] d[5][6] </args>
        <args> w[5][7] d[5][7] </args>
        <args> w[5][8] d[5][8] </args>
        <args> w[5][9] d[5][9] </args>
        <args> w[5][10] d[5][10] </args>
        <args> w[5][11] d[5][11] </args>
        <args> w[5][12] d[5][12] </args>
        <args> w[5][13] d[5][13] </args>
        <args> w[5][14] d[5][14] </args>
      </group>
      <group>
        <extension>
          <list> %0 %1 </list>
          <supports> (0,89)(1,28)(2,58)(3,19)(4,34)(5,40)(6,76)(7,1)(8,95)(9,65)(10,39)(11,70)(12,68)(13,26)(14,68) </supports>
        </extension>
        <args> w[6][0] d[6][0] </args>
        <args> w[6][1] d[6][1] </args>
        <args> w[6][2] d[6][2] </args>
        <args> w[6][3] d[6][3] </args>
        <args> w[6][4] d[6][4] </args>
        <args> w[6][5] d[6][5] </args>
        <args> w[6][6] d[6][6] </args>
        <args> w[6][7] d[6][7] </args>
        <args> w[6][8] d[6][8] </args>
        <args> w[6][9] d[6][9] </args>
        <args> w[6][10] d[6][10] </args>
        <args> w[6][11] d[6][11] </args>
        <args> w[6][12] d[6][12] </args>
        <args> w[6][13] d[6][13] </args>
        <args> w[6][14] d[6][14] </args>
      </group>
      <group>
        <extension>
          <list> %0 %1 </list>
          <supports> (0,97)(1,65)(2,70)(3,5)(4,26)(5,76)(6,11)(7,89)(8,42)(9,41)(10,40)(11,85)(12,68)(13,30)(14,73) </supports>
        </extension>
        <args> w[7][0] d[7][0] </args>
        <args> w[7][1] d[7][1] </args>
        <args> w[7][2] d[7][2] </args>
        <args> w[7][3] d[7][3] </args>
        <args> w[7][4] d[7][4] </args>
        <args> w[7][5] d[7][5] </args>
        <args> w[7][6] d[7][6] </args>
        <args> w[7][7] d[7][7] </args>
        <args> w[7][8] d[7][8] </args>
        <args> w[7][9] d[7][9] </args>
        <args> w[7][10] d[7][10] </args>
        <args> w[7][11] d[7][11] </args>
        <args> w[7][12] d[7][12] </args>
        <args> w[7][13] d[7][13] </args>
        <args> w[7][14] d[7][14] </args>
      </group>
      <group>
        <extension>
          <list> %0 %1 </list>
          <supports> (0,6)(1,31)(2,66)(3,9)(4,95)(5,31)(6,45)(7,20)(8,81)(9,71)(10,99)(11,42)(12,23)(13,70)(14,97) </supports>
        </extension>
        <args> w[8][0] d[8][0] </args>
        <args> w[8][1] d[8][1] </args>
        <args> w[8][2] d[8][2] </args>
        <args> w[8][3] d[8][3] </args>
        <args> w[8][4] d[8][4] </args>
        <args> w[8][5] d[8][5] </args>
        <args> w[8][6] d[8][6] </args>
        <args> w[8][7] d[8][7] </args>
        <args> w[8][8] d[8][8] </args>
        <args> w[8][9] d[8][9] </args>
        <args> w[8][10] d[8][10] </args>
        <args> w[8][11] d[8][11] </args>
        <args> w[8][12] d[8][12] </args>
        <args> w[8][13] d[8][13] </args>
        <args> w[8][14] d[8][14] </args>
      </group>
      <group>
        <extension>
          <list> %0 %1 </list>
          <supports> (0,38)(1,35)(2,73)(3,85)(4,66)(5,61)(6,26)(7,13)(8,84)(9,30)(10,44)(11,89)(12,42)(13,50)(14,90) </supports>
        </extension>
        <args> w[9][0] d[9][0] </args>
        <args> w[9][1] d[9][1] </args>
        <args> w[9][2] d[9][2] </args>
        <args> w[9][3] d[9][3] </args>
        <args> w[9][4] d[9][4] </args>
        <args> w[9][5] d[9][5] </args>
        <args> w[9][6] d[9][6] </args>
        <args> w[9][7] d[9][7] </args>
        <args> w[9][8] d[9][8] </args>
        <args> w[9][9] d[9][9] </args>
        <args> w[9][10] d[9][10] </args>
        <args> w[9][11] d[9][11] </args>
        <args> w[9][12] d[9][12] </args>
        <args> w[9][13] d[9][13] </args>
        <args> w[9][14] d[9][14] </args>
      </group>
      <group>
        <extension>
          <list> %0 %1 </list>
          <supports> (0,57)(1,8)(2,23)(3,87)(4,46)(5,83)(6,32)(7,28)(8,13)(9,12)(10,69)(11,55)(12,26)(13,28)(14,69) </supports>
        </extension>
        <args> w[10][0] d[10][0] </args>
        <args> w[10][1] d[10][1] </args>
        <args> w[10][2] d[10][2] </args>
        <args> w[10][3] d[10][3] </args>
        <args> w[10][4] d[10][4] </args>
        <args> w[10][5] d[10][5] </args>
        <args> w[10][6] d[10][6] </args>
        <args> w[10][7] d[10][7] </args>
        <args> w[10][8] d[10][8] </args>
        <args> w[10][9] d[10][9] </args>
        <args> w[10][10] d[10][10] </args>
        <args> w[10][11] d[10][11] </args>
        <args> w[10][12] d[10][12] </args>
        <args> w[10][13] d[10][13] </args>
        <args> w[10][14] d[10][14] </args>
      </group>
      <group>
        <extension>
          <list> %0 %1 </list>
          <supports> (0,38)(1,2)(2,46)(3,32)(4,53)(5,99)(6,99)(7,70)(8,58)(9,34)(10,37)(11,7)(12,7)(13,93)(14,18) </supports>
        </extension>
        <args> w[11][0] d[11][0] </args>
        <args> w[11][1] d[11][1] </args>
        <args> w[11][2] d[11][2] </args>
        <args> w[11][3] d[11][3] </args>
        <args> w[11][4] d[11][4] </args>
        <args> w[11][5] d[11][5] </args>
        <args> w[11][6] d[11][6] </args>
        <args> w[11][7] d[11][7] </args>
        <args> w[11][8] d[11][8] </args>
        <args> w[11][9] d[11][9] </args>
        <args> w[11][10] d[11][10] </args>
        <args> w[11][11] d[11][11] </args>
        <args> w[11][12] d[11][12] </args>
        <args> w[11][13] d[11][13] </args>
        <args> w[11][14] d[11][14] </args>
      </group>
      <group>
        <extension>
          <list> %0 %1 </list>
          <supports> (0,44)(1,8)(2,41)(3,63)(4,68)(5,33)(6,4)(7,16)(8,25)(9,49)(10,42)(11,13)(12,89)(13,28)(14,55) </supports>
        </extension>
        <args> w[12][0] d[12][0] </args>
        <args> w[12][1] d[12][1] </args>
        <args> w[12][2] d[12][2] </args>
        <args> w[12][3] d[12][3] </args>
        <args> w[12][4] d[12][4] </args>
        <args> w[12][5] d[12][5] </args>
        <args> w[12][6] d[12][6] </args>
        <args> w[12][7] d[12][7] </args>
        <args> w[12][8] d[12][8] </args>
        <args> w[12][9] d[12][9] </args>
        <args> w[12][10] d[12][10] </args>
        <args> w[12][11] d[12][11] </args>
        <args> w[12][12] d[12][12] </args>
        <args> w[12][13] d[12][13] </args>
        <args> w[12][14] d[12][14] </args>
      </group>
      <group>
        <extension>
          <list> %0 %1 </list>
          <supports> (0,74)(1,93)(2,92)(3,68)(4,92)(5,23)(6,22)(7,44)(8,55)(9,81)(10,87)(11,18)(12,78)(13,15)(14,55) </supports>
        </extension>
        <args> w[13][0] d[13][0] </args>
        <args> w[13][1] d[13][1] </args>
        <args> w[13][2] d[13][2] </args>
        <args> w[13][3] d[13][3] </args>
        <args> w[13][4] d[13][4] </args>
        <args> w[13][5] d[13][5] </args>
        <args> w[13][6] d[13][6] </args>
        <args> w[13][7] d[13][7] </args>
        <args> w[13][8] d[13][8] </args>
        <args> w[13][9] d[13][9] </args>
        <args> w[13][10] d[13][10] </args>
        <args> w[13][11] d[13][11] </args>
        <args> w[13][12] d[13][12] </args>
        <args> w[13][13] d[13][13] </args>
        <args> w[13][14] d[13][14] </args>
      </group>
      <group>
        <extension>
          <list> %0 %1 </list>
          <supports> (0,57)(1,36)(2,55)(3,60)(4,99)(5,13)(6,79)(7,61)(8,39)(9,33)(10,80)(11,24)(12,87)(13,6)(14,58) </supports>
        </extension>
        <args> w[14][0] d[14][0] </args>
        <args> w[14][1] d[14][1] </args>
        <args> w[14][2] d[14][2] </args>
        <args> w[14][3] d[14][3] </args>
        <args> w[14][4] d[14][4] </args>
        <args> w[14][5] d[14][5] </args>
        <args> w[14][6] d[14][6] </args>
        <args> w[14][7] d[14][7] </args>
        <args> w[14][8] d[14][8] </args>
        <args> w[14][9] d[14][9] </args>
        <args> w[14][10] d[14][10] </args>
        <args> w[14][11] d[14][11] </args>
        <args> w[14][12] d[14][12] </args>
        <args> w[14][13] d[14][13] </args>
        <args> w[14][14] d[14][14] </args>
      </group>
    </block>
    <group>
      <intension> le(add(%0,%1),%2) </intension>
      <args> s[0][0] d[0][0] s[0][1] </args>
      <args> s[0][1] d[0][1] s[0][2] </args>
      <args> s[0][2] d[0][2] s[0][3] </args>
      <args> s[0][3] d[0][3] s[0][4] </args>
      <args> s[0][4] d[0][4] s[0][5] </args>
      <args> s[0][5] d[0][5] s[0][6] </args>
      <args> s[0][6] d[0][6] s[0][7] </args>
      <args> s[0][7] d[0][7] s[0][8] </args>
      <args> s[0][8] d[0][8] s[0][9] </args>
      <args> s[0][9] d[0][9] s[0][10] </args>
      <args> s[0][10] d[0][10] s[0][11] </args>
      <args> s[0][11] d[0][11] s[0][12] </args>
      <args> s[0][12] d[0][12] s[0][13] </args>
      <args> s[0][13] d[0][13] s[0][14] </args>
      <args> s[1][0] d[1][0] s[1][1] </args>
      <args> s[1][1] d[1][1] s[1][2] </args>
      <args> s[1][2] d[1][2] s[1][3] </args>
      <args> s[1][3] d[1][3] s[1][4] </args>
      <args> s[1][4] d[1][4] s[1][5] </args>
      <args> s[1][5] d[1][5] s[1][6] </args>
      <args> s[1][6] d[1][6] s[1][7] </args>
      <args> s[1][7] d[1][7] s[1][8] </args>
      <args> s[1][8] d[1][8] s[1][9] </args>
      <args> s[1][9] d[1][9] s[1][10] </args>
      <args> s[1][10] d[1][10] s[1][11] </args>
      <args> s[1][11] d[1][11] s[1][12] </args>
      <args> s[1][12] d[1][12] s[1][13] </args>
      <args> s[1][13] d[1][13] s[1][14] </args>
      <args> s[2][0] d[2][0] s[2][1] </args>
      <args> s[2][1] d[2][1] s[2][2] </args>
      <args> s[2][2] d[2][2] s[2][3] </args>
      <args> s[2][3] d[2][3] s[2][4] </args>
      <args> s[2][4] d[2][4] s[2][5] </args>
      <args> s[2][5] d[2][5] s[2][6] </args>
      <args> s[2][6] d[2][6] s[2][7] </args>
      <args> s[2][7] d[2][7] s[2][8] </args>
      <args> s[2][8] d[2][8] s[2][9] </args>
      <args> s[2][9] d[2][9] s[2][10] </args>
      <args> s[2][10] d[2][10] s[2][11] </args>
      <args> s[2][11] d[2][11] s[2][12] </args>
      <args> s[2][12] d[2][12] s[2][13] </args>
      <args> s[2][13] d[2][13] s[2][14] </args>
      <args> s[3][0] d[3][0] s[3][1] </args>
      <args> s[3][1] d[3][1] s[3][2] </args>
      <args> s[3][2] d[3][2] s[3][3] </args>
      <args> s[3][3] d[3][3] s[3][4] </args>
      <args> s[3][4] d[3][4] s[3][5] </args>
      <args> s[3][5] d[3][5] s[3][6] </args>
      <args> s[3][6] d[3][6] s[3][7] </args>
      <args> s[3][7] d[3][7] s[3][8] </args>
      <args> s[3][8] d[3][8] s[3][9] </args>
      <args> s[3][9] d[3][9] s[3][10] </args>
      <args> s[3][10] d[3][10] s[3][11] </args>
      <args> s[3][11] d[3][11] s[3][12] </args>
      <args> s[3][12] d[3][12] s[3][13] </args>
      <args> s[3][13] d[3][13] s[3][14] </args>
      <args> s[4][0] d[4][0] s[4][1] </args>
      <args> s[4][1] d[4][1] s[4][2] </args>
      <args> s[4][2] d[4][2] s[4][3] </args>
      <args> s[4][3] d[4][3] s[4][4] </args>
      <args> s[4][4] d[4][4] s[4][5] </args>
      <args> s[4][5] d[4][5] s[4][6] </args>
      <args> s[4][6] d[4][6] s[4][7] </args>
      <args> s[4][7] d[4][7] s[4][8] </args>
      <args> s[4][8] d[4][8] s[4][9] </args>
      <args> s[4][9] d[4][9] s[4][10] </args>
      <args> s[4][10] d[4][10] s[4][11] </args>
      <args> s[4][11] d[4][11] s[4][12] </args>
      <args> s[4][12] d[4][12] s[4][13] </args>
      <args> s[4][13] d[4][13] s[4][14] </args>
      <args> s[5][0] d[5][0] s[5][1] </args>
      <args> s[5][1] d[5][1] s[5][2] </args>
      <args> s[5][2] d[5][2] s[5][3] </args>
      <args> s[5][3] d[5][3] s[5][4] </args>
      <args> s[5][4] d[5][4] s[5][5] </args>
      <args> s[5][5] d[5][5] s[5][6] </args>
      <args> s[5][6] d[5][6] s[5][7] </args>
      <args> s[5][7] d[5][7] s[5][8] </args>
      <args> s[5][8] d[5][8] s[5][9] </args>
      <args> s[5][9] d[5][9] s[5][10] </args>
      <args> s[5][10] d[5][10] s[5][11] </args>
      <args> s[5][11] d[5][11] s[5][12] </args>
      <args> s[5][12] d[5][12] s[5][13] </args>
      <args> s[5][13] d[5][13] s[5][14] </args>
      <args> s[6][0] d[6][0] s[6][1] </args>
      <args> s[6][1] d[6][1] s[6][2] </args>
      <args> s[6][2] d[6][2] s[6][3] </args>
      <args> s[6][3] d[6][3] s[6][4] </args>
      <args> s[6][4] d[6][4] s[6][5] </args>
      <args> s[6][5] d[6][5] s[6][6] </args>
      <args> s[6][6] d[6][6] s[6][7] </args>
      <args> s[6][7] d[6][7] s[6][8] </args>
      <args> s[6][8] d[6][8] s[6][9] </args>
      <args> s[6][9] d[6][9] s[6][10] </args>
      <args> s[6][10] d[6][10] s[6][11] </args>
      <args> s[6][11] d[6][11] s[6][12] </args>
      <args> s[6][12] d[6][12] s[6][13] </args>
      <args> s[6][13] d[6][13] s[6][14] </args>
      <args> s[7][0] d[7][0] s[7][1] </args>
      <args> s[7][1] d[7][1] s[7][2] </args>
      <args> s[7][2] d[7][2] s[7][3] </args>
      <args> s[7][3] d[7][3] s[7][4] </args>
      <args> s[7][4] d[7][4] s[7][5] </args>
      <args> s[7][5] d[7][5] s[7][6] </args>
      <args> s[7][6] d[7][6] s[7][7] </args>
      <args> s[7][7] d[7][7] s[7][8] </args>
      <args> s[7][8] d[7][8] s[7][9] </args>
      <args> s[7][9] d[7][9] s[7][10] </args>
      <args> s[7][10] d[7][10] s[7][11] </args>
      <args> s[7][11] d[7][11] s[7][12] </args>
      <args> s[7][12] d[7][12] s[7][13] </args>
      <args> s[7][13] d[7][13] s[7][14] </args>
      <args> s[8][0] d[8][0] s[8][1] </args>
      <args> s[8][1] d[8][1] s[8][2] </args>
      <args> s[8][2] d[8][2] s[8][3] </args>
      <args> s[8][3] d[8][3] s[8][4] </args>
      <args> s[8][4] d[8][4] s[8][5] </args>
      <args> s[8][5] d[8][5] s[8][6] </args>
      <args> s[8][6] d[8][6] s[8][7] </args>
      <args> s[8][7] d[8][7] s[8][8] </args>
      <args> s[8][8] d[8][8] s[8][9] </args>
      <args> s[8][9] d[8][9] s[8][10] </args>
      <args> s[8][10] d[8][10] s[8][11] </args>
      <args> s[8][11] d[8][11] s[8][12] </args>
      <args> s[8][12] d[8][12] s[8][13] </args>
      <args> s[8][13] d[8][13] s[8][14] </args>
      <args> s[9][0] d[9][0] s[9][1] </args>
      <args> s[9][1] d[9][1] s[9][2] </args>
      <args> s[9][2] d[9][2] s[9][3] </args>
      <args> s[9][3] d[9][3] s[9][4] </args>
      <args> s[9][4] d[9][4] s[9][5] </args>
      <args> s[9][5] d[9][5] s[9][6] </args>
      <args> s[9][6] d[9][6] s[9][7] </args>
      <args> s[9][7] d[9][7] s[9][8] </args>
      <args> s[9][8] d[9][8] s[9][9] </args>
      <args> s[9][9] d[9][9] s[9][10] </args>
      <args> s[9][10] d[9][10] s[9][11] </args>
      <args> s[9][11] d[9][11] s[9][12] </args>
      <args> s[9][12] d[9][12] s[9][13] </args>
      <args> s[9][13] d[9][13] s[9][14] </args>
      <args> s[10][0] d[10][0] s[10][1] </args>
      <args> s[10][1] d[10][1] s[10][2] </args>
      <args> s[10][2] d[10][2] s[10][3] </args>
      <args> s[10][3] d[10][3] s[10][4] </args>
      <args> s[10][4] d[10][4] s[10][5] </args>
      <args> s[10][5] d[10][5] s[10][6] </args>
      <args> s[10][6] d[10][6] s[10][7] </args>
      <args> s[10][7] d[10][7] s[10][8] </args>
      <args> s[10][8] d[10][8] s[10][9] </args>
      <args> s[10][9] d[10][9] s[10][10] </args>
      <args> s[10][10] d[10][10] s[10][11] </args>
      <args> s[10][11] d[10][11] s[10][12] </args>
      <args> s[10][12] d[10][12] s[10][13] </args>
      <args> s[10][13] d[10][13] s[10][14] </args>
      <args> s[11][0] d[11][0] s[11][1] </args>
      <args> s[11][1] d[11][1] s[11][2] </args>
      <args> s[11][2] d[11][2] s[11][3] </args>
      <args> s[11][3] d[11][3] s[11][4] </args>
      <args> s[11][4] d[11][4] s[11][5] </args>
      <args> s[11][5] d[11][5] s[11][6] </args>
      <args> s[11][6] d[11][6] s[11][7] </args>
      <args> s[11][7] d[11][7] s[11][8] </args>
      <args> s[11][8] d[11][8] s[11][9] </args>
      <args> s[11][9] d[11][9] s[11][10] </args>
      <args> s[11][10] d[11][10] s[11][11] </args>
      <args> s[11][11] d[11][11] s[11][12] </args>
      <args> s[11][12] d[11][12] s[11][13] </args>
      <args> s[11][13] d[11][13] s[11][14] </args>
      <args> s[12][0] d[12][0] s[12][1] </args>
      <args> s[12][1] d[12][1] s[12][2] </args>
      <args> s[12][2] d[12][2] s[12][3] </args>
      <args> s[12][3] d[12][3] s[12][4] </args>
      <args> s[12][4] d[12][4] s[12][5] </args>
      <args> s[12][5] d[12][5] s[12][6] </args>
      <args> s[12][6] d[12][6] s[12][7] </args>
      <args> s[12][7] d[12][7] s[12][8] </args>
      <args> s[12][8] d[12][8] s[12][9] </args>
      <args> s[12][9] d[12][9] s[12][10] </args>
      <args> s[12][10] d[12][10] s[12][11] </args>
      <args> s[12][11] d[12][11] s[12][12] </args>
      <args> s[12][12] d[12][12] s[12][13] </args>
      <args> s[12][13] d[12][13] s[12][14] </args>
      <args> s[13][0] d[13][0] s[13][1] </args>
      <args> s[13][1] d[13][1] s[13][2] </args>
      <args> s[13][2] d[13][2] s[13][3] </args>
      <args> s[13][3] d[13][3] s[13][4] </args>
      <args> s[13][4] d[13][4] s[13][5] </args>
      <args> s[13][5] d[13][5] s[13][6] </args>
      <args> s[13][6] d[13][6] s[13][7] </args>
      <args> s[13][7] d[13][7] s[13][8] </args>
      <args> s[13][8] d[13][8] s[13][9] </args>
      <args> s[13][9] d[13][9] s[13][10] </args>
      <args> s[13][10] d[13][10] s[13][11] </args>
      <args> s[13][11] d[13][11] s[13][12] </args>
      <args> s[13][12] d[13][12] s[13][13] </args>
      <args> s[13][13] d[13][13] s[13][14] </args>
      <args> s[14][0] d[14][0] s[14][1] </args>
      <args> s[14][1] d[14][1] s[14][2] </args>
      <args> s[14][2] d[14][2] s[14][3] </args>
      <args> s[14][3] d[14][3] s[14][4] </args>
      <args> s[14][4] d[14][4] s[14][5] </args>
      <args> s[14][5] d[14][5] s[14][6] </args>
      <args> s[14][6] d[14][6] s[14][7] </args>
      <args> s[14][7] d[14][7] s[14][8] </args>
      <args> s[14][8] d[14][8] s[14][9] </args>
      <args> s[14][9] d[14][9] s[14][10] </args>
      <args> s[14][10] d[14][10] s[14][11] </args>
      <args> s[14][11] d[14][11] s[14][12] </args>
      <args> s[14][12] d[14][12] s[14][13] </args>
      <args> s[14][13] d[14][13] s[14][14] </args>
    </group>
    <block class="channeling">
      <group>
        <element>
          <list> sd[0][] </list>
          <index> %0 </index>
          <value> %1 </value>
        </element>
        <args> w[0][0] s[0][0] </args>
        <args> w[0][1] s[0][1] </args>
        <args> w[0][2] s[0][2] </args>
        <args> w[0][3] s[0][3] </args>
        <args> w[0][4] s[0][4] </args>
        <args> w[0][5] s[0][5] </args>
        <args> w[0][6] s[0][6] </args>
        <args> w[0][7] s[0][7] </args>
        <args> w[0][8] s[0][8] </args>
        <args> w[0][9] s[0][9] </args>
        <args> w[0][10] s[0][10] </args>
        <args> w[0][11] s[0][11] </args>
        <args> w[0][12] s[0][12] </args>
        <args> w[0][13] s[0][13] </args>
        <args> w[0][14] s[0][14] </args>
      </group>
      <group>
        <element>
          <list> sd[1][] </list>
          <index> %0 </index>
          <value> %1 </value>
        </element>
        <args> w[1][0] s[1][0] </args>
        <args> w[1][1] s[1][1] </args>
        <args> w[1][2] s[1][2] </args>
        <args> w[1][3] s[1][3] </args>
        <args> w[1][4] s[1][4] </args>
        <args> w[1][5] s[1][5] </args>
        <args> w[1][6] s[1][6] </args>
        <args> w[1][7] s[1][7] </args>
        <args> w[1][8] s[1][8] </args>
        <args> w[1][9] s[1][9] </args>
        <args> w[1][10] s[1][10] </args>
        <args> w[1][11] s[1][11] </args>
        <args> w[1][12] s[1][12] </args>
        <args> w[1][13] s[1][13] </args>
        <args> w[1][14] s[1][14] </args>
      </group>
      <group>
        <element>
          <list> sd[2][] </list>
          <index> %0 </index>
          <value> %1 </value>
        </element>
        <args> w[2][0] s[2][0] </args>
        <args> w[2][1] s[2][1] </args>
        <args> w[2][2] s[2][2] </args>
        <args> w[2][3] s[2][3] </args>
        <args> w[2][4] s[2][4] </args>
        <args> w[2][5] s[2][5] </args>
        <args> w[2][6] s[2][6] </args>
        <args> w[2][7] s[2][7] </args>
        <args> w[2][8] s[2][8] </args>
        <args> w[2][9] s[2][9] </args>
        <args> w[2][10] s[2][10] </args>
        <args> w[2][11] s[2][11] </args>
        <args> w[2][12] s[2][12] </args>
        <args> w[2][13] s[2][13] </args>
        <args> w[2][14] s[2][14] </args>
      </group>
      <group>
        <element>
          <list> sd[3][] </list>
          <index> %0 </index>
          <value> %1 </value>
        </element>
        <args> w[3][0] s[3][0] </args>
        <args> w[3][1] s[3][1] </args>
        <args> w[3][2] s[3][2] </args>
        <args> w[3][3] s[3][3] </args>
        <args> w[3][4] s[3][4] </args>
        <args> w[3][5] s[3][5] </args>
        <args> w[3][6] s[3][6] </args>
        <args> w[3][7] s[3][7] </args>
        <args> w[3][8] s[3][8] </args>
        <args> w[3][9] s[3][9] </args>
        <args> w[3][10] s[3][10] </args>
        <args> w[3][11] s[3][11] </args>
        <args> w[3][12] s[3][12] </args>
        <args> w[3][13] s[3][13] </args>
        <args> w[3][14] s[3][14] </args>
      </group>
      <group>
        <element>
          <list> sd[4][] </list>
          <index> %0 </index>
          <value> %1 </value>
        </element>
        <args> w[4][0] s[4][0] </args>
        <args> w[4][1] s[4][1] </args>
        <args> w[4][2] s[4][2] </args>
        <args> w[4][3] s[4][3] </args>
        <args> w[4][4] s[4][4] </args>
        <args> w[4][5] s[4][5] </args>
        <args> w[4][6] s[4][6] </args>
        <args> w[4][7] s[4][7] </args>
        <args> w[4][8] s[4][8] </args>
        <args> w[4][9] s[4][9] </args>
        <args> w[4][10] s[4][10] </args>
        <args> w[4][11] s[4][11] </args>
        <args> w[4][12] s[4][12] </args>
        <args> w[4][13] s[4][13] </args>
        <args> w[4][14] s[4][14] </args>
      </group>
      <group>
        <element>
          <list> sd[5][] </list>
          <index> %0 </index>
          <value> %1 </value>
        </element>
        <args> w[5][0] s[5][0] </args>
        <args> w[5][1] s[5][1] </args>
        <args> w[5][2] s[5][2] </args>
        <args> w[5][3] s[5][3] </args>
        <args> w[5][4] s[5][4] </args>
        <args> w[5][5] s[5][5] </args>
        <args> w[5][6] s[5][6] </args>
        <args> w[5][7] s[5][7] </args>
        <args> w[5][8] s[5][8] </args>
        <args> w[5][9] s[5][9] </args>
        <args> w[5][10] s[5][10] </args>
        <args> w[5][11] s[5][11] </args>
        <args> w[5][12] s[5][12] </args>
        <args> w[5][13] s[5][13] </args>
        <args> w[5][14] s[5][14] </args>
      </group>
      <group>
        <element>
          <list> sd[6][] </list>
          <index> %0 </index>
          <value> %1 </value>
        </element>
        <args> w[6][0] s[6][0] </args>
        <args> w[6][1] s[6][1] </args>
        <args> w[6][2] s[6][2] </args>
        <args> w[6][3] s[6][3] </args>
        <args> w[6][4] s[6][4] </args>
        <args> w[6][5] s[6][5] </args>
        <args> w[6][6] s[6][6] </args>
        <args> w[6][7] s[6][7] </args>
        <args> w[6][8] s[6][8] </args>
        <args> w[6][9] s[6][9] </args>
        <args> w[6][10] s[6][10] </args>
        <args> w[6][11] s[6][11] </args>
        <args> w[6][12] s[6][12] </args>
        <args> w[6][13] s[6][13] </args>
        <args> w[6][14] s[6][14] </args>
      </group>
      <group>
        <element>
          <list> sd[7][] </list>
          <index> %0 </index>
          <value> %1 </value>
        </element>
        <args> w[7][0] s[7][0] </args>
        <args> w[7][1] s[7][1] </args>
        <args> w[7][2] s[7][2] </args>
        <args> w[7][3] s[7][3] </args>
        <args> w[7][4] s[7][4] </args>
        <args> w[7][5] s[7][5] </args>
        <args> w[7][6] s[7][6] </args>
        <args> w[7][7] s[7][7] </args>
        <args> w[7][8] s[7][8] </args>
        <args> w[7][9] s[7][9] </args>
        <args> w[7][10] s[7][10] </args>
        <args> w[7][11] s[7][11] </args>
        <args> w[7][12] s[7][12] </args>
        <args> w[7][13] s[7][13] </args>
        <args> w[7][14] s[7][14] </args>
      </group>
      <group>
        <element>
          <list> sd[8][] </list>
          <index> %0 </index>
          <value> %1 </value>
        </element>
        <args> w[8][0] s[8][0] </args>
        <args> w[8][1] s[8][1] </args>
        <args> w[8][2] s[8][2] </args>
        <args> w[8][3] s[8][3] </args>
        <args> w[8][4] s[8][4] </args>
        <args> w[8][5] s[8][5] </args>
        <args> w[8][6] s[8][6] </args>
        <args> w[8][7] s[8][7] </args>
        <args> w[8][8] s[8][8] </args>
        <args> w[8][9] s[8][9] </args>
        <args> w[8][10] s[8][10] </args>
        <args> w[8][11] s[8][11] </args>
        <args> w[8][12] s[8][12] </args>
        <args> w[8][13] s[8][13] </args>
        <args> w[8][14] s[8][14] </args>
      </group>
      <group>
        <element>
          <list> sd[9][] </list>
          <index> %0 </index>
          <value> %1 </value>
        </element>
        <args> w[9][0] s[9][0] </args>
        <args> w[9][1] s[9][1] </args>
        <args> w[9][2] s[9][2] </args>
        <args> w[9][3] s[9][3] </args>
        <args> w[9][4] s[9][4] </args>
        <args> w[9][5] s[9][5] </args>
        <args> w[9][6] s[9][6] </args>
        <args> w[9][7] s[9][7] </args>
        <args> w[9][8] s[9][8] </args>
        <args> w[9][9] s[9][9] </args>
        <args> w[9][10] s[9][10] </args>
        <args> w[9][11] s[9][11] </args>
        <args> w[9][12] s[9][12] </args>
        <args> w[9][13] s[9][13] </args>
        <args> w[9][14] s[9][14] </args>
      </group>
      <group>
        <element>
          <list> sd[10][] </list>
          <index> %0 </index>
          <value> %1 </value>
        </element>
        <args> w[10][0] s[10][0] </args>
        <args> w[10][1] s[10][1] </args>
        <args> w[10][2] s[10][2] </args>
        <args> w[10][3] s[10][3] </args>
        <args> w[10][4] s[10][4] </args>
        <args> w[10][5] s[10][5] </args>
        <args> w[10][6] s[10][6] </args>
        <args> w[10][7] s[10][7] </args>
        <args> w[10][8] s[10][8] </args>
        <args> w[10][9] s[10][9] </args>
        <args> w[10][10] s[10][10] </args>
        <args> w[10][11] s[10][11] </args>
        <args> w[10][12] s[10][12] </args>
        <args> w[10][13] s[10][13] </args>
        <args> w[10][14] s[10][14] </args>
      </group>
      <group>
        <element>
          <list> sd[11][] </list>
          <index> %0 </index>
          <value> %1 </value>
        </element>
        <args> w[11][0] s[11][0] </args>
        <args> w[11][1] s[11][1] </args>
        <args> w[11][2] s[11][2] </args>
        <args> w[11][3] s[11][3] </args>
        <args> w[11][4] s[11][4] </args>
        <args> w[11][5] s[11][5] </args>
        <args> w[11][6] s[11][6] </args>
        <args> w[11][7] s[11][7] </args>
        <args> w[11][8] s[11][8] </args>
        <args> w[11][9] s[11][9] </args>
        <args> w[11][10] s[11][10] </args>
        <args> w[11][11] s[11][11] </args>
        <args> w[11][12] s[11][12] </args>
        <args> w[11][13] s[11][13] </args>
        <args> w[11][14] s[11][14] </args>
      </group>
      <group>
        <element>
          <list> sd[12][] </list>
          <index> %0 </index>
          <value> %1 </value>
        </element>
        <args> w[12][0] s[12][0] </args>
        <args> w[12][1] s[12][1] </args>
        <args> w[12][2] s[12][2] </args>
        <args> w[12][3] s[12][3] </args>
        <args> w[12][4] s[12][4] </args>
        <args> w[12][5] s[12][5] </args>
        <args> w[12][6] s[12][6] </args>
        <args> w[12][7] s[12][7] </args>
        <args> w[12][8] s[12][8] </args>
        <args> w[12][9] s[12][9] </args>
        <args> w[12][10] s[12][10] </args>
        <args> w[12][11] s[12][11] </args>
        <args> w[12][12] s[12][12] </args>
        <args> w[12][13] s[12][13] </args>
        <args> w[12][14] s[12][14] </args>
      </group>
      <group>
        <element>
          <list> sd[13][] </list>
          <index> %0 </index>
          <value> %1 </value>
        </element>
        <args> w[13][0] s[13][0] </args>
        <args> w[13][1] s[13][1] </args>
        <args> w[13][2] s[13][2] </args>
        <args> w[13][3] s[13][3] </args>
        <args> w[13][4] s[13][4] </args>
        <args> w[13][5] s[13][5] </args>
        <args> w[13][6] s[13][6] </args>
        <args> w[13][7] s[13][7] </args>
        <args> w[13][8] s[13][8] </args>
        <args> w[13][9] s[13][9] </args>
        <args> w[13][10] s[13][10] </args>
        <args> w[13][11] s[13][11] </args>
        <args> w[13][12] s[13][12] </args>
        <args> w[13][13] s[13][13] </args>
        <args> w[13][14] s[13][14] </args>
      </group>
      <group>
        <element>
          <list> sd[14][] </list>
          <index> %0 </index>
          <value> %1 </value>
        </element>
        <args> w[14][0] s[14][0] </args>
        <args> w[14][1] s[14][1] </args>
        <args> w[14][2] s[14][2] </args>
        <args> w[14][3] s[14][3] </args>
        <args> w[14][4] s[14][4] </args>
        <args> w[14][5] s[14][5] </args>
        <args> w[14][6] s[14][6] </args>
        <args> w[14][7] s[14][7] </args>
        <args> w[14][8] s[14][8] </args>
        <args> w[14][9] s[14][9] </args>
        <args> w[14][10] s[14][10] </args>
        <args> w[14][11] s[14][11] </args>
        <args> w[14][12] s[14][12] </args>
        <args> w[14][13] s[14][13] </args>
        <args> w[14][14] s[14][14] </args>
      </group>
    </block>
    <block>
      <noOverlap>
        <origins> sd[][0] </origins>
        <lengths> 48 39 26 23 21 97 89 97 6 38 57 38 44 74 57 </lengths>
      </noOverlap>
      <noOverlap>
        <origins> sd[][1] </origins>
        <lengths> 47 31 48 43 93 40 28 65 31 35 8 2 8 93 36 </lengths>
      </noOverlap>
      <noOverlap>
        <origins> sd[][2] </origins>
        <lengths> 67 56 7 98 5 54 58 70 66 73 23 46 41 92 55 </lengths>
      </noOverlap>
      <noOverlap>
        <origins> sd[][3] </origins>
        <lengths> 13 31 40 64 31 89 19 5 9 85 87 32 63 68 60 </lengths>
      </noOverlap>
      <noOverlap>
        <origins> sd[][4] </origins>
        <lengths> 12 51 98 1 59 60 34 26 95 66 46 53 68 92 99 </lengths>
      </noOverlap>
      <noOverlap>
        <origins> sd[][5] </origins>
        <lengths> 91 74 21 78 85 14 40 76 31 61 83 99 33 23 13 </lengths>
      </noOverlap>
      <noOverlap>
        <origins> sd[][6] </origins>
        <lengths> 45 55 43 45 35 26 76 11 45 26 32 99 4 22 79 </lengths>
      </noOverlap>
      <noOverlap>
        <origins> sd[][7] </origins>
        <lengths> 7 87 16 3 63 7 1 89 20 13 28 70 16 44 61 </lengths>
      </noOverlap>
      <noOverlap>
        <origins> sd[][8] </origins>
        <lengths> 72 44 55 13 73 11 95 42 81 84 13 58 25 55 39 </lengths>
      </noOverlap>
      <noOverlap>
        <origins> sd[][9] </origins>
        <lengths> 83 99 27 15 18 17 65 41 71 30 12 34 49 81 33 </lengths>
      </noOverlap>
      <noOverlap>
        <origins> sd[][10] </origins>
        <lengths> 81 63 16 89 41 75 39 40 99 44 69 37 42 87 80 </lengths>
      </noOverlap>
      <noOverlap>
        <origins> sd[][11] </origins>
        <lengths> 81 40 41 59 55 71 70 85 42 89 55 7 13 18 24 </lengths>
      </noOverlap>
      <noOverlap>
        <origins> sd[][12] </origins>
        <lengths> 49 68 98 40 13 79 68 68 23 42 26 7 89 78 87 </lengths>
      </noOverlap>
      <noOverlap>
        <origins> sd[][13] </origins>
        <lengths> 57 64 86 17 49 36 26 30 70 50 28 93 28 15 6 </lengths>
      </noOverlap>
      <noOverlap>
        <origins> sd[][14] </origins>
        <lengths> 78 60 11 58 56 8 68 73 97 90 69 18 55 55 58 </lengths>
      </noOverlap>
    </block>
    <group class="redundantConstraints">
      <intension> ge(%0,%1) </intension>
      <args> e[0] 831 </args>
      <args> e[1] 862 </args>
      <args> e[2] 633 </args>
      <args> e[3] 646 </args>
      <args> e[4] 697 </args>
      <args> e[5] 684 </args>
      <args> e[6] 776 </args>
      <args> e[7] 818 </args>
      <args> e[8] 786 </args>
      <args> e[9] 826 </args>
      <args> e[10] 636 </args>
      <args> e[11] 693 </args>
      <args> e[12] 578 </args>
      <args> e[13] 897 </args>
      <args> e[14] 787 </args>
    </group>
  </constraints>
  <objectives>
    <minimize type="maximum"> e[] </minimize>
  </objectives>
</instance>
